N = 10;
H = 6;
T = 2;

avail = array3d(1..N, 1..H, 1..T, [8, 8, 4, 8, 2, 4, 0, 9, 4, 7, 4, 8, 3, 3, 5, 7, 7, 3, 5, 1, 3, 7, 1, 9, 2, 9, 4, 5, 8, 2, 5, 7, 1, 6, 2, 0, 3, 7, 1, 10, 3, 10, 9, 3, 3, 4, 9, 10, 0, 4, 6, 7, 10, 4, 10, 1, 3, 4, 0, 8, 7, 7, 6, 3, 10, 7, 4, 8, 8, 9, 4, 7, 7, 4, 6, 7, 3, 10, 7, 7, 10, 1, 10, 7, 10, 4, 6, 2, 9, 6, 3, 8, 2, 0, 5, 4, 6, 9, 4, 5, 9, 5, 5, 0, 0, 7, 1, 9, 1, 3, 3, 2, 5, 3, 4, 5, 7, 0, 6, 9]);

r = array2d(1..H, 1..T, [2, 2, 6, 2, 1, 0, 2, 4, 3, 0, 4, 4]);
